lbl,CUST NO.,READY TIME,XCOORD.,YCOORD.,DEMAND,DUE DATE,SERVICE TIME
1,0,0,70,70,0,1351,0
1,113,15,67,55,10,101,90
1,155,54,63,57,10,165,90
1,78,137,62,58,20,265,90
1,175,219,61,54,10,372,90
1,13,330,63,50,10,449,90
1,43,419,61,48,20,546,90
1,2,518,59,52,20,637,90
1,90,620,57,53,10,718,90
1,67,686,59,56,20,839,90
1,17,799,57,59,10,915,90
1,39,888,61,59,20,1014,90
1,107,976,64,61,20,1112,90
